
        $ From http://www.csplib.org/Problems/prob009/data/helmut.pdf
        $ Problem number 93
        $ Sequence length : 25
        language ESSENCE' 1.0
        letting sizemaster be 326
        letting sizes be sequence(1,4,8,10,12,16,21,22,24,27,28,35,36,37,38,46,49,68,70,75,88,90,93,158,168)
        